objective value:                                11449
t_x_6                                               1 	(obj:51)
t_x_7                                               1 	(obj:7)
t_x_10                                              1 	(obj:79)
t_x_11                                              1 	(obj:7)
t_x_12                                              1 	(obj:42)
t_x_13                                              1 	(obj:4)
t_x_14                                              1 	(obj:18)
t_x_16                                              1 	(obj:53)
t_x_17                                              1 	(obj:51)
t_x_18                                              1 	(obj:34)
t_x_21                                              1 	(obj:19)
t_x_24                                              1 	(obj:0)
t_x_27                                              1 	(obj:30)
t_x_30                                              1 	(obj:41)
t_x_32                                              1 	(obj:3)
t_x_33                                              1 	(obj:54)
t_x_35                                              1 	(obj:5)
t_x_36                                              1 	(obj:29)
t_x_39                                              1 	(obj:44)
t_x_40                                              1 	(obj:43)
t_x_41                                              1 	(obj:19)
t_x_43                                              1 	(obj:39)
t_x_44                                              1 	(obj:20)
t_x_46                                              1 	(obj:7)
t_x_48                                              1 	(obj:34)
t_x_49                                              1 	(obj:13)
t_x_57                                              1 	(obj:16)
t_x_58                                              1 	(obj:42)
t_x_63                                              1 	(obj:3)
t_x_68                                              1 	(obj:23)
t_x_69                                              1 	(obj:80)
t_x_72                                              1 	(obj:9)
t_x_74                                              1 	(obj:29)
t_x_77                                              1 	(obj:8)
t_x_79                                              1 	(obj:31)
t_x_80                                              1 	(obj:4)
t_x_81                                              1 	(obj:14)
t_x_82                                              1 	(obj:10)
t_x_86                                              1 	(obj:13)
t_x_89                                              1 	(obj:29)
t_x_95                                              1 	(obj:62)
t_x_96                                              1 	(obj:39)
t_x_99                                              1 	(obj:70)
t_x_101                                             1 	(obj:11)
t_x_104                                             1 	(obj:12)
t_x_107                                             1 	(obj:20)
t_x_108                                             1 	(obj:16)
t_x_115                                             1 	(obj:16)
t_x_117                                             1 	(obj:16)
t_x_137                                             1 	(obj:8)
t_x_144                                             1 	(obj:15)
t_x_158                                             1 	(obj:41)
t_x_164                                             1 	(obj:23)
t_x_165                                             1 	(obj:9)
t_x_167                                             1 	(obj:4)
t_x_170                                             1 	(obj:22)
t_x_172                                             1 	(obj:39)
t_x_173                                             1 	(obj:3)
t_x_177                                             1 	(obj:2)
t_x_178                                             1 	(obj:11)
t_x_184                                             1 	(obj:23)
t_x_191                                             1 	(obj:39)
t_x_193                                             1 	(obj:24)
t_x_194                                             1 	(obj:56)
t_x_203                                             1 	(obj:75)
t_x_206                                             1 	(obj:14)
t_x_209                                             1 	(obj:26)
t_x_211                                             1 	(obj:9)
t_x_213                                             1 	(obj:13)
t_x_214                                             1 	(obj:13)
t_x_226                                             1 	(obj:36)
t_x_227                                             1 	(obj:28)
t_x_230                                             1 	(obj:4)
t_x_235                                             1 	(obj:7)
t_x_236                                             1 	(obj:25)
t_x_237                                             1 	(obj:30)
t_x_240                                             1 	(obj:11)
t_x_246                                             1 	(obj:6)
t_x_260                                             1 	(obj:18)
t_x_261                                             1 	(obj:8)
t_x_262                                             1 	(obj:5)
t_x_263                                             1 	(obj:3)
t_x_274                                             1 	(obj:18)
t_x_278                                             1 	(obj:30)
t_x_285                                             1 	(obj:1)
t_x_292                                             1 	(obj:5)
t_x_293                                             1 	(obj:31)
t_x_299                                             1 	(obj:34)
t_x_300                                             1 	(obj:34)
t_x_303                                             1 	(obj:18)
t_x_308                                             1 	(obj:27)
t_x_309                                             1 	(obj:6)
t_x_310                                             1 	(obj:2)
t_x_313                                             1 	(obj:17)
t_x_314                                             1 	(obj:29)
t_x_315                                             1 	(obj:25)
t_x_316                                             1 	(obj:14)
t_x_318                                             1 	(obj:71)
t_x_326                                             1 	(obj:42)
t_x_331                                             1 	(obj:3)
t_x_337                                             1 	(obj:28)
t_x_340                                             1 	(obj:11)
t_x_341                                             1 	(obj:41)
t_x_344                                             1 	(obj:25)
t_x_346                                             1 	(obj:16)
t_x_350                                             1 	(obj:53)
t_x_354                                             1 	(obj:24)
t_x_356                                             1 	(obj:38)
t_x_362                                             1 	(obj:22)
t_x_364                                             1 	(obj:1)
t_x_367                                             1 	(obj:6)
t_x_368                                             1 	(obj:15)
t_x_369                                             1 	(obj:5)
t_x_370                                             1 	(obj:10)
t_x_372                                             1 	(obj:1)
t_x_374                                             1 	(obj:2)
t_x_377                                             1 	(obj:26)
t_x_378                                             1 	(obj:37)
t_x_379                                             1 	(obj:6)
t_x_388                                             1 	(obj:3)
t_x_389                                             1 	(obj:12)
t_x_395                                             1 	(obj:5)
t_x_396                                             1 	(obj:19)
t_x_404                                             1 	(obj:2)
t_x_408                                             1 	(obj:13)
t_x_409                                             1 	(obj:14)
t_x_410                                             1 	(obj:5)
t_x_414                                             1 	(obj:2)
t_x_416                                             1 	(obj:41)
t_x_418                                             1 	(obj:10)
t_x_419                                             1 	(obj:95)
t_x_421                                             1 	(obj:10)
t_x_424                                             1 	(obj:0)
t_x_425                                             1 	(obj:12)
t_x_428                                             1 	(obj:0)
t_x_433                                             1 	(obj:5)
t_x_437                                             1 	(obj:0)
t_x_438                                             1 	(obj:18)
t_x_441                                             1 	(obj:5)
t_x_445                                             1 	(obj:20)
t_x_447                                             1 	(obj:9)
t_x_451                                             1 	(obj:16)
t_x_454                                             1 	(obj:13)
t_x_458                                             1 	(obj:4)
t_x_469                                             1 	(obj:10)
t_x_470                                             1 	(obj:10)
t_x_480                                             1 	(obj:27)
t_x_483                                             1 	(obj:4)
t_x_484                                             1 	(obj:13)
t_x_488                                             1 	(obj:25)
t_x_491                                             1 	(obj:8)
t_x_492                                             1 	(obj:15)
t_x_495                                             1 	(obj:9)
t_x_496                                             1 	(obj:25)
t_x_499                                             1 	(obj:7)
t_x_503                                             1 	(obj:9)
t_x_508                                             1 	(obj:19)
t_x_514                                             1 	(obj:15)
t_x_515                                             1 	(obj:2)
t_x_518                                             1 	(obj:19)
t_x_520                                             1 	(obj:14)
t_x_521                                             1 	(obj:0)
t_x_525                                             1 	(obj:32)
t_x_534                                             1 	(obj:17)
t_x_538                                             1 	(obj:11)
t_x_540                                             1 	(obj:7)
t_x_543                                             1 	(obj:13)
t_x_549                                             1 	(obj:63)
t_x_550                                             1 	(obj:82)
t_x_552                                             1 	(obj:6)
t_x_554                                             1 	(obj:23)
t_x_568                                             1 	(obj:20)
t_x_569                                             1 	(obj:7)
t_x_570                                             1 	(obj:4)
t_x_572                                             1 	(obj:25)
t_x_573                                             1 	(obj:9)
t_x_574                                             1 	(obj:51)
t_x_575                                             1 	(obj:27)
t_x_581                                             1 	(obj:4)
t_x_584                                             1 	(obj:0)
t_x_587                                             1 	(obj:32)
t_x_588                                             1 	(obj:18)
t_x_594                                             1 	(obj:14)
t_x_598                                             1 	(obj:2)
t_x_606                                             1 	(obj:16)
t_x_610                                             1 	(obj:49)
t_x_612                                             1 	(obj:53)
t_x_614                                             1 	(obj:16)
t_x_617                                             1 	(obj:10)
t_x_621                                             1 	(obj:30)
t_x_624                                             1 	(obj:19)
t_x_625                                             1 	(obj:18)
t_x_629                                             1 	(obj:6)
t_x_630                                             1 	(obj:13)
t_x_632                                             1 	(obj:13)
t_x_635                                             1 	(obj:13)
t_x_636                                             1 	(obj:13)
t_x_641                                             1 	(obj:33)
t_x_642                                             1 	(obj:0)
t_x_643                                             1 	(obj:2)
t_x_644                                             1 	(obj:24)
t_x_646                                             1 	(obj:6)
t_x_650                                             1 	(obj:27)
t_x_656                                             1 	(obj:22)
t_x_668                                             1 	(obj:15)
t_x_669                                             1 	(obj:73)
t_x_679                                             1 	(obj:12)
t_x_682                                             1 	(obj:38)
t_x_694                                             1 	(obj:4)
t_x_695                                             1 	(obj:39)
t_x_700                                             1 	(obj:17)
t_x_706                                             1 	(obj:2)
t_x_710                                             1 	(obj:14)
t_x_712                                             1 	(obj:19)
t_x_714                                             1 	(obj:5)
t_x_719                                             1 	(obj:16)
t_x_723                                             1 	(obj:0)
t_x_724                                             1 	(obj:0)
t_x_732                                             1 	(obj:22)
t_x_734                                             1 	(obj:11)
t_x_745                                             1 	(obj:30)
t_x_761                                             1 	(obj:22)
t_x_763                                             1 	(obj:29)
t_x_769                                             1 	(obj:21)
t_x_770                                             1 	(obj:13)
t_x_772                                             1 	(obj:7)
t_x_775                                             1 	(obj:10)
t_x_779                                             1 	(obj:53)
t_x_782                                             1 	(obj:8)
t_x_787                                             1 	(obj:8)
t_x_790                                             1 	(obj:2)
t_x_797                                             1 	(obj:13)
t_x_801                                             1 	(obj:10)
t_x_804                                             1 	(obj:48)
t_x_805                                             1 	(obj:12)
t_x_807                                             1 	(obj:8)
t_x_808                                             1 	(obj:44)
t_x_810                                             1 	(obj:25)
t_x_813                                             1 	(obj:0)
t_x_817                                             1 	(obj:11)
t_x_820                                             1 	(obj:1)
t_x_829                                             1 	(obj:14)
t_x_830                                             1 	(obj:1)
t_x_832                                             1 	(obj:50)
t_x_841                                             1 	(obj:18)
t_x_842                                             1 	(obj:9)
t_x_849                                             1 	(obj:20)
t_x_851                                             1 	(obj:42)
t_x_853                                             1 	(obj:10)
t_x_858                                             1 	(obj:28)
t_x_859                                             1 	(obj:20)
t_x_861                                             1 	(obj:5)
t_x_871                                             1 	(obj:32)
t_x_872                                             1 	(obj:11)
t_x_876                                             1 	(obj:36)
t_x_879                                             1 	(obj:27)
t_x_880                                             1 	(obj:10)
t_x_881                                             1 	(obj:8)
t_x_883                                             1 	(obj:9)
t_x_886                                             1 	(obj:14)
t_x_891                                             1 	(obj:28)
t_x_893                                             1 	(obj:3)
t_x_896                                             1 	(obj:18)
t_x_902                                             1 	(obj:14)
t_x_905                                             1 	(obj:14)
t_x_910                                             1 	(obj:8)
t_x_915                                             1 	(obj:9)
t_x_916                                             1 	(obj:16)
t_x_918                                             1 	(obj:6)
t_x_921                                             1 	(obj:19)
t_x_923                                             1 	(obj:63)
t_x_924                                             1 	(obj:7)
t_x_929                                             1 	(obj:4)
t_x_936                                             1 	(obj:5)
t_x_940                                             1 	(obj:32)
t_x_944                                             1 	(obj:5)
t_x_949                                             1 	(obj:59)
t_x_951                                             1 	(obj:31)
t_x_955                                             1 	(obj:30)
t_x_964                                             1 	(obj:11)
t_x_970                                             1 	(obj:3)
t_x_973                                             1 	(obj:12)
t_x_975                                             1 	(obj:18)
t_x_978                                             1 	(obj:13)
t_x_982                                             1 	(obj:17)
t_x_983                                             1 	(obj:20)
t_x_987                                             1 	(obj:0)
t_x_993                                             1 	(obj:4)
t_x_994                                             1 	(obj:16)
t_x_997                                             1 	(obj:2)
t_x_1006                                            1 	(obj:17)
t_x_1008                                            1 	(obj:17)
t_x_1016                                            1 	(obj:2)
t_x_1018                                            1 	(obj:6)
t_x_1025                                            1 	(obj:19)
t_x_1029                                            1 	(obj:0)
t_x_1031                                            1 	(obj:50)
t_x_1034                                            1 	(obj:25)
t_x_1035                                            1 	(obj:9)
t_x_1043                                            1 	(obj:8)
t_x_1044                                            1 	(obj:8)
t_x_1045                                            1 	(obj:18)
t_x_1049                                            1 	(obj:43)
t_x_1051                                            1 	(obj:11)
t_x_1055                                            1 	(obj:13)
t_x_1059                                            1 	(obj:1)
t_x_1061                                            1 	(obj:0)
t_x_1062                                            1 	(obj:39)
t_x_1064                                            1 	(obj:18)
t_x_1070                                            1 	(obj:23)
t_x_1071                                            1 	(obj:12)
t_x_1077                                            1 	(obj:20)
t_x_1080                                            1 	(obj:27)
t_x_1081                                            1 	(obj:15)
t_x_1084                                            1 	(obj:10)
t_x_1087                                            1 	(obj:10)
t_x_1089                                            1 	(obj:19)
t_x_1097                                            1 	(obj:57)
t_x_1098                                            1 	(obj:6)
t_x_1099                                            1 	(obj:13)
t_x_1101                                            1 	(obj:11)
t_x_1105                                            1 	(obj:23)
t_x_1108                                            1 	(obj:28)
t_x_1118                                            1 	(obj:20)
t_x_1123                                            1 	(obj:0)
t_x_1126                                            1 	(obj:19)
t_x_1130                                            1 	(obj:4)
t_x_1137                                            1 	(obj:14)
t_x_1138                                            1 	(obj:9)
t_x_1139                                            1 	(obj:55)
t_x_1145                                            1 	(obj:15)
t_x_1153                                            1 	(obj:22)
t_x_1163                                            1 	(obj:39)
t_x_1164                                            1 	(obj:1)
t_x_1165                                            1 	(obj:21)
t_x_1168                                            1 	(obj:37)
t_x_1171                                            1 	(obj:17)
t_x_1172                                            1 	(obj:38)
t_x_1181                                            1 	(obj:5)
t_x_1182                                            1 	(obj:12)
t_x_1185                                            1 	(obj:12)
t_x_1187                                            1 	(obj:45)
t_x_1190                                            1 	(obj:0)
t_x_1191                                            1 	(obj:12)
t_x_1195                                            1 	(obj:50)
t_x_1197                                            1 	(obj:25)
t_x_1201                                            1 	(obj:4)
t_x_1202                                            1 	(obj:42)
t_x_1206                                            1 	(obj:15)
t_x_1207                                            1 	(obj:48)
t_x_1211                                            1 	(obj:17)
t_x_1218                                            1 	(obj:19)
t_x_1224                                            1 	(obj:11)
t_x_1226                                            1 	(obj:4)
t_x_1227                                            1 	(obj:17)
t_x_1231                                            1 	(obj:36)
t_x_1239                                            1 	(obj:36)
t_x_1240                                            1 	(obj:41)
t_x_1248                                            1 	(obj:6)
t_x_1249                                            1 	(obj:31)
t_x_1250                                            1 	(obj:27)
t_x_1259                                            1 	(obj:35)
t_x_1260                                            1 	(obj:20)
t_x_1261                                            1 	(obj:37)
t_x_1262                                            1 	(obj:62)
t_x_1269                                            1 	(obj:15)
t_x_1274                                            1 	(obj:0)
t_x_1276                                            1 	(obj:63)
t_x_1281                                            1 	(obj:12)
t_x_1282                                            1 	(obj:3)
t_x_1283                                            1 	(obj:43)
t_x_1285                                            1 	(obj:1)
t_x_1287                                            1 	(obj:11)
t_x_1291                                            1 	(obj:5)
t_x_1295                                            1 	(obj:15)
t_x_1296                                            1 	(obj:23)
t_x_1298                                            1 	(obj:23)
t_x_1300                                            1 	(obj:11)
t_x_1301                                            1 	(obj:18)
t_x_1305                                            1 	(obj:5)
t_x_1311                                            1 	(obj:30)
t_x_1315                                            1 	(obj:3)
t_x_1322                                            1 	(obj:7)
t_x_1324                                            1 	(obj:19)
t_x_1326                                            1 	(obj:1)
t_x_1327                                            1 	(obj:9)
t_x_1330                                            1 	(obj:37)
t_x_1334                                            1 	(obj:0)
t_x_1335                                            1 	(obj:7)
t_x_1336                                            1 	(obj:19)
t_x_1349                                            1 	(obj:5)
t_x_1353                                            1 	(obj:14)
t_x_1354                                            1 	(obj:28)
t_x_1362                                            1 	(obj:27)
t_x_1372                                            1 	(obj:66)
t_x_1373                                            1 	(obj:21)
t_x_1375                                            1 	(obj:17)
t_x_1381                                            1 	(obj:9)
t_x_1382                                            1 	(obj:10)
t_x_1383                                            1 	(obj:11)
t_x_1386                                            1 	(obj:19)
t_x_1387                                            1 	(obj:8)
t_x_1389                                            1 	(obj:13)
t_x_1391                                            1 	(obj:19)
t_x_1392                                            1 	(obj:18)
t_x_1394                                            1 	(obj:15)
t_x_1398                                            1 	(obj:35)
t_x_1401                                            1 	(obj:23)
t_x_1403                                            1 	(obj:15)
t_x_1404                                            1 	(obj:21)
t_x_1405                                            1 	(obj:24)
t_x_1407                                            1 	(obj:22)
t_x_1409                                            1 	(obj:22)
t_x_1410                                            1 	(obj:27)
t_x_1411                                            1 	(obj:6)
t_x_1412                                            1 	(obj:26)
t_x_1413                                            1 	(obj:1)
t_x_1419                                            1 	(obj:5)
t_x_1423                                            1 	(obj:2)
t_x_1427                                            1 	(obj:12)
t_x_1428                                            1 	(obj:29)
t_x_1435                                            1 	(obj:14)
t_x_1439                                            1 	(obj:12)
t_x_1441                                            1 	(obj:2)
t_x_1446                                            1 	(obj:1)
t_x_1450                                            1 	(obj:62)
t_x_1453                                            1 	(obj:4)
t_x_1459                                            1 	(obj:19)
t_x_1460                                            1 	(obj:2)
t_x_1463                                            1 	(obj:3)
t_x_1468                                            1 	(obj:7)
t_x_1470                                            1 	(obj:18)
t_x_1473                                            1 	(obj:48)
t_x_1483                                            1 	(obj:8)
t_x_1487                                            1 	(obj:12)
t_x_1489                                            1 	(obj:4)
t_x_1493                                            1 	(obj:33)
t_x_1496                                            1 	(obj:19)
t_x_1499                                            1 	(obj:3)
t_x_1505                                            1 	(obj:11)
t_x_1507                                            1 	(obj:31)
t_x_1509                                            1 	(obj:18)
t_x_1511                                            1 	(obj:37)
t_x_1512                                            1 	(obj:72)
t_x_1514                                            1 	(obj:17)
t_x_1519                                            1 	(obj:29)
t_x_1522                                            1 	(obj:80)
t_x_1525                                            1 	(obj:0)
t_x_1526                                            1 	(obj:6)
t_x_1532                                            1 	(obj:5)
t_x_1533                                            1 	(obj:30)
t_x_1535                                            1 	(obj:28)
t_x_1537                                            1 	(obj:25)
t_x_1540                                            1 	(obj:17)
t_x_1550                                            1 	(obj:43)
t_x_1551                                            1 	(obj:9)
t_x_1556                                            1 	(obj:1)
t_x_1557                                            1 	(obj:31)
t_x_1563                                            1 	(obj:0)
t_x_1565                                            1 	(obj:31)
t_x_1566                                            1 	(obj:15)
t_x_1570                                            1 	(obj:35)
t_x_1571                                            1 	(obj:39)
t_x_1572                                            1 	(obj:15)
t_x_1575                                            1 	(obj:7)
t_x_1580                                            1 	(obj:14)
t_x_1584                                            1 	(obj:17)
t_x_1586                                            1 	(obj:44)
t_x_1588                                            1 	(obj:24)
t_x_1591                                            1 	(obj:24)
t_x_1598                                            1 	(obj:9)
t_x_1600                                            1 	(obj:25)
t_x_1601                                            1 	(obj:29)
t_x_1602                                            1 	(obj:24)
t_x_1604                                            1 	(obj:17)
t_x_1605                                            1 	(obj:20)
t_x_1607                                            1 	(obj:3)
t_x_1613                                            1 	(obj:23)
t_x_1616                                            1 	(obj:0)
t_x_1622                                            1 	(obj:57)
t_x_1623                                            1 	(obj:28)
t_x_1625                                            1 	(obj:41)
t_x_1627                                            1 	(obj:22)
t_x_1630                                            1 	(obj:40)
t_x_1632                                            1 	(obj:15)
t_x_1642                                            1 	(obj:32)
t_x_1643                                            1 	(obj:17)
t_x_1645                                            1 	(obj:13)
t_x_1647                                            1 	(obj:7)
t_x_1648                                            1 	(obj:3)
t_x_1649                                            1 	(obj:47)
t_x_1654                                            1 	(obj:1)
t_x_1656                                            1 	(obj:25)
t_x_1661                                            1 	(obj:3)
t_x_1663                                            1 	(obj:9)
t_x_1671                                            1 	(obj:43)
t_x_1672                                            1 	(obj:27)
t_x_1673                                            1 	(obj:9)
t_x_1677                                            1 	(obj:50)
t_x_1678                                            1 	(obj:39)
t_x_1686                                            1 	(obj:25)
t_x_1688                                            1 	(obj:2)
t_x_1691                                            1 	(obj:17)
t_x_1692                                            1 	(obj:24)
t_x_1695                                            1 	(obj:31)
t_x_1696                                            1 	(obj:5)
t_x_1701                                            1 	(obj:41)
t_x_1707                                            1 	(obj:4)
t_x_1708                                            1 	(obj:7)
t_x_1711                                            1 	(obj:21)
t_x_1713                                            1 	(obj:7)
t_x_1717                                            1 	(obj:34)
t_x_1718                                            1 	(obj:12)
t_x_1727                                            1 	(obj:20)
t_x_1728                                            1 	(obj:6)
t_x_1734                                            1 	(obj:3)
t_x_1735                                            1 	(obj:42)
t_x_1736                                            1 	(obj:7)
t_x_1738                                            1 	(obj:27)
t_x_1742                                            1 	(obj:72)
t_x_1745                                            1 	(obj:18)
t_x_1747                                            1 	(obj:32)
t_x_1748                                            1 	(obj:9)
t_x_1750                                            1 	(obj:25)
t_x_1757                                            1 	(obj:11)
t_x_1767                                            1 	(obj:59)
t_x_1772                                            1 	(obj:11)
t_x_1773                                            1 	(obj:16)
t_x_1777                                            1 	(obj:9)
t_x_1786                                            1 	(obj:23)
t_x_1790                                            1 	(obj:35)
t_x_1791                                            1 	(obj:1)
t_x_1801                                            1 	(obj:11)
t_x_1806                                            1 	(obj:8)
t_x_1817                                            1 	(obj:22)
t_x_1821                                            1 	(obj:18)
t_x_1825                                            1 	(obj:10)
t_x_1830                                            1 	(obj:11)
t_x_1831                                            1 	(obj:12)
t_x_1836                                            1 	(obj:37)
t_x_1839                                            1 	(obj:26)
t_x_1841                                            1 	(obj:5)
t_x_1845                                            1 	(obj:5)
t_x_1846                                            1 	(obj:43)
t_x_1852                                            1 	(obj:5)
t_x_1853                                            1 	(obj:32)
t_x_1854                                            1 	(obj:6)
t_x_1861                                            1 	(obj:10)
t_x_1862                                            1 	(obj:23)
t_x_1864                                            1 	(obj:49)
t_x_1867                                            1 	(obj:20)
t_x_1869                                            1 	(obj:8)
t_x_1872                                            1 	(obj:16)
t_x_1875                                            1 	(obj:23)
t_x_1877                                            1 	(obj:25)
t_x_1883                                            1 	(obj:18)
t_x_1884                                            1 	(obj:16)
t_x_1885                                            1 	(obj:6)
t_x_1886                                            1 	(obj:12)
t_x_1887                                            1 	(obj:14)
t_x_1892                                            1 	(obj:35)
t_x_1897                                            1 	(obj:15)
t_x_1906                                            1 	(obj:2)
t_x_1908                                            1 	(obj:1)
t_x_1910                                            1 	(obj:9)
t_x_1911                                            1 	(obj:15)
t_x_1916                                            1 	(obj:9)
t_x_1922                                            1 	(obj:12)
t_x_1923                                            1 	(obj:16)
t_x_1924                                            1 	(obj:19)
t_x_1927                                            1 	(obj:2)
t_x_1934                                            1 	(obj:22)
t_x_1941                                            1 	(obj:25)
t_x_1944                                            1 	(obj:29)
t_x_1950                                            1 	(obj:20)
t_x_1960                                            1 	(obj:11)
t_x_1962                                            1 	(obj:26)
t_x_1965                                            1 	(obj:13)
t_x_1970                                            1 	(obj:4)
t_x_1976                                            1 	(obj:4)
t_x_1977                                            1 	(obj:6)
t_x_1979                                            1 	(obj:2)
t_x_1985                                            1 	(obj:18)
t_x_1986                                            1 	(obj:12)
t_x_1987                                            1 	(obj:3)
t_x_1991                                            1 	(obj:20)
t_x_1996                                            1 	(obj:33)
t_x_1997                                            1 	(obj:11)
t_x_1998                                            1 	(obj:26)
